#=======================================================
# FHI-aims file: geometry.in
# Created using the Atomic Simulation Environment (ASE)
# Wed Mar 13 16:32:08 2024
#=======================================================
lattice_vector 4.1308999999999996 0.0000000000000000 0.0000000000000000 
lattice_vector 1.2018686729692625 4.5399058782022248 0.0000000000000000 
lattice_vector 0.4074522948948934 0.9073914183721399 8.4808693210807995 
atom 1.8636661611795262 3.4589823115032470 1.2944350844765624 C
atom 3.8765548066846294 1.9883149850711175 7.1864342366042369 C
atom 1.1504668242716780 4.0315082032753455 1.5791378675852450 H
atom 4.5897541435924776 1.4157890932990189 6.9017314534955547 H
atom 2.5996354478536263 4.0515212387259734 1.0406026656966141 H
atom 3.1405855200105290 1.3957760578483915 7.4402666553841854 H
atom 1.5743879113392143 2.9993899840289089 0.5037636376721994 H
atom 4.1658330565249413 2.4479073125454560 7.9771056834085998 H
atom 2.2442366595029752 2.4950194589837529 2.4056833916177798 C
atom 3.4959843083611801 2.9522778375906116 6.0751859294630197 C
atom 1.5130954151154523 1.8754346564517412 2.6180443594176426 H
atom 4.2271255527487028 3.5718626401226232 5.8628249616631569 H
atom 2.9461969154679180 1.9256824034881128 2.0947747223069575 H
atom 2.7940240523962383 3.5216148930862521 6.3860945987738420 H
atom 2.6859067830137557 3.2010679851769459 3.6773897463138461 C
atom 3.0543141848503996 2.2462293113974190 4.8034795747669534 C
atom 1.9868534900020085 3.7735647974710971 3.9885528417042999 H
atom 3.7533674778621466 1.6737324991032674 4.4923164793765000 H
atom 3.4369026782002163 3.8179094873512698 3.4822449432357763 H
atom 2.3033182896639395 1.6293878092230949 4.9986243778450223 H
