#************************************************************************************
#*                   Generated by cif2cell 2.1.0 2024-03-13 11:38                   *
#*  T. Bjorkman, Comp. Phys. Commun. 182, 1183-1186 (2011). Please cite generously. *
#*                                                                                  *
#*                              Data obtained from COD                              *
#*                                    None   (?)                                    *
#*             Failed to get author information, No journal information             *
#************************************************************************************

lattice_vector   14.944300000000000   0.000000000000000   0.000000000000000 
lattice_vector    0.000000000000000  18.294100000000000   0.000000000000000 
lattice_vector    0.000000000000000   0.000000000000000   5.254100000000000 
atom_frac    0.212820000000000   0.344190000000000   0.594610000000000  I
atom_frac    0.287180000000000   0.655810000000000   0.094610000000000  I
atom_frac    0.787180000000000   0.655810000000000   0.405390000000000  I
atom_frac    0.287180000000000   0.844190000000000   0.594610000000000  I
atom_frac    0.212820000000000   0.155810000000000   0.094610000000000  I
atom_frac    0.712820000000000   0.344190000000000   0.905390000000000  I
atom_frac    0.712820000000000   0.155810000000000   0.405390000000000  I
atom_frac    0.787180000000000   0.844190000000000   0.905390000000000  I
atom_frac    0.532250000000000   0.364080000000000   0.419870000000000  I
atom_frac    0.967750000000000   0.635920000000000   0.919870000000000  I
atom_frac    0.467750000000000   0.635920000000000   0.580130000000000  I
atom_frac    0.967750000000000   0.864080000000000   0.419870000000000  I
atom_frac    0.532250000000000   0.135920000000000   0.919870000000000  I
atom_frac    0.032250000000000   0.364080000000000   0.080130000000000  I
atom_frac    0.032250000000000   0.135920000000000   0.580130000000000  I
atom_frac    0.467750000000000   0.864080000000000   0.080130000000000  I
atom_frac    0.377340000000000   0.316760000000000   0.006900000000000  S
atom_frac    0.122660000000000   0.683240000000000   0.506900000000000  S
atom_frac    0.622660000000000   0.683240000000000   0.993100000000000  S
atom_frac    0.122660000000000   0.816760000000000   0.006900000000000  S
atom_frac    0.377340000000000   0.183240000000000   0.506900000000000  S
atom_frac    0.877340000000000   0.316760000000000   0.493100000000000  S
atom_frac    0.877340000000000   0.183240000000000   0.993100000000000  S
atom_frac    0.622660000000000   0.816760000000000   0.493100000000000  S
atom_frac    0.431400000000000   0.387000000000000   0.167000000000000  C
atom_frac    0.068600000000000   0.613000000000000   0.667000000000000  C
atom_frac    0.568600000000000   0.613000000000000   0.833000000000000  C
atom_frac    0.068600000000000   0.887000000000000   0.167000000000000  C
atom_frac    0.431400000000000   0.113000000000000   0.667000000000000  C
atom_frac    0.931400000000000   0.387000000000000   0.333000000000000  C
atom_frac    0.931400000000000   0.113000000000000   0.833000000000000  C
atom_frac    0.568600000000000   0.887000000000000   0.333000000000000  C
atom_frac    0.310600000000000   0.378400000000000   0.856000000000000  C
atom_frac    0.189400000000000   0.621600000000000   0.356000000000000  C
atom_frac    0.689400000000000   0.621600000000000   0.144000000000000  C
atom_frac    0.189400000000000   0.878400000000000   0.856000000000000  C
atom_frac    0.310600000000000   0.121600000000000   0.356000000000000  C
atom_frac    0.810600000000000   0.378400000000000   0.644000000000000  C
atom_frac    0.810600000000000   0.121600000000000   0.144000000000000  C
atom_frac    0.689400000000000   0.878400000000000   0.644000000000000  C
atom_frac    0.327400000000000   0.446700000000000   0.917000000000000  C
atom_frac    0.172600000000000   0.553300000000000   0.417000000000000  C
atom_frac    0.672600000000000   0.553300000000000   0.083000000000000  C
atom_frac    0.172600000000000   0.946700000000000   0.917000000000000  C
atom_frac    0.327400000000000   0.053300000000000   0.417000000000000  C
atom_frac    0.827400000000000   0.446700000000000   0.583000000000000  C
atom_frac    0.827400000000000   0.053300000000000   0.083000000000000  C
atom_frac    0.672600000000000   0.946700000000000   0.583000000000000  C
atom_frac    0.398400000000000   0.453400000000000   0.100000000000000  C
atom_frac    0.101600000000000   0.546600000000000   0.600000000000000  C
atom_frac    0.601600000000000   0.546600000000000   0.900000000000000  C
atom_frac    0.101600000000000   0.953400000000000   0.100000000000000  C
atom_frac    0.398400000000000   0.046600000000000   0.600000000000000  C
atom_frac    0.898400000000000   0.453400000000000   0.400000000000000  C
atom_frac    0.898400000000000   0.046600000000000   0.900000000000000  C
atom_frac    0.601600000000000   0.953400000000000   0.400000000000000  C
atom_frac    0.297200000000000   0.486400000000000   0.849800000000000  H
atom_frac    0.202800000000000   0.513600000000000   0.349800000000000  H
atom_frac    0.702800000000000   0.513600000000000   0.150200000000000  H
atom_frac    0.202800000000000   0.986400000000000   0.849800000000000  H
atom_frac    0.297200000000000   0.013600000000000   0.349800000000000  H
atom_frac    0.797200000000000   0.486400000000000   0.650200000000000  H
atom_frac    0.797200000000000   0.013600000000000   0.150200000000000  H
atom_frac    0.702800000000000   0.986400000000000   0.650200000000000  H
atom_frac    0.419000000000000   0.497800000000000   0.166000000000000  H
atom_frac    0.081000000000000   0.502200000000000   0.666000000000000  H
atom_frac    0.581000000000000   0.502200000000000   0.834000000000000  H
atom_frac    0.081000000000000   0.997800000000000   0.166000000000000  H
atom_frac    0.419000000000000   0.002200000000000   0.666000000000000  H
atom_frac    0.919000000000000   0.497800000000000   0.334000000000000  H
atom_frac    0.919000000000000   0.002200000000000   0.834000000000000  H
atom_frac    0.581000000000000   0.997800000000000   0.334000000000000  H
